 vasp.5.4.1 05Feb16 (build Jul 05 2020 17:13:04) complex

 executed on           IFC91_ompi date 2024.04.05  10:55:14

 INCAR:
 POTCAR:   PAW_PBE Cr 06Sep2000
 POTCAR:    PAW_PBE S 17Jan2003

 POTCAR:   PAW_PBE Cr 06Sep2000
   VRHFIN =Cr : d5 s1

   TITEL  = PAW_PBE Cr 06Sep2000
   POMASS =   51.996; ZVAL   =    6.000    mass and valenz
   ENMAX  =  227.082; ENMIN  =  170.311 eV
   QCUT   =   -4.085; QGAM   =    8.171    optimization parameters

   Description
     l     E      TYP  RCUT    TYP  RCUT
     2   .000     23  2.500
     2   .000     23  2.500
     0   .000     23  2.500
     0   .000     23  2.500
     1  -.400     23  2.500
     1  2.000     23  2.500
     3   .000      7   .000

 POTCAR:    PAW_PBE S 17Jan2003
   VRHFIN =S : s2p4

   TITEL  = PAW_PBE S 17Jan2003
   POMASS =   32.066; ZVAL   =    6.000    mass and valenz
   ENMAX  =  280.000; ENMIN  =  194.016 eV
   QCUT   =   -4.360; QGAM   =    8.721    optimization parameters

   Description
     l     E      TYP  RCUT    TYP  RCUT
     0   .000     23  1.900
     0   .000     23  1.900
     1   .000     23  1.900
     1   .000     23  1.900
     2   .000     23  1.900

 PAW_PBE Cr 06Sep2000                   :
  PAW_PBE S 17Jan2003                   :

 POSCAR: crystal structure from CrS2 with Hexagin
  positions in cartesian coordinates
 exchange correlation table for  LEXCH =        8
   RHO(1)=    0.500       N(1)  =     2000
   RHO(2)=  100.500       N(2)  =     4000

 ion  position               nearest neighbor table
   1  0.000  0.000  0.000-  23 2.34  14 2.34  11 2.36  10 2.36  27 2.36  26 2.36
   2  1.000  0.333  0.000-  25 2.34  10 2.34  13 2.36  12 2.36  22 2.36  23 2.36
   3  0.000  0.667  0.000-  27 2.34  12 2.34  14 2.36  15 2.36  24 2.36  25 2.36
   4  0.333  0.000  0.000-  11 2.34  20 2.34  17 2.36  16 2.36  15 2.36  14 2.36
   5  0.333  0.333  0.000-  13 2.34  16 2.34  19 2.36  18 2.36  11 2.36  10 2.36
   6  0.333  0.667  0.000-  15 2.34  18 2.34  20 2.36  21 2.36  13 2.36  12 2.36
   7  0.667  0.000  0.000-  17 2.34  26 2.34  23 2.36  22 2.36  21 2.36  20 2.36
   8  0.667  0.333  0.000-  19 2.34  22 2.34  25 2.36  24 2.36  17 2.36  16 2.36
   9  0.667  0.667  0.000-  21 2.34  24 2.34  27 2.36  26 2.36  19 2.36  18 2.36
  10  0.111  0.222  0.955-   2 2.34   1 2.36   5 2.36
  11  0.222  0.111  0.045-   4 2.34   1 2.36   5 2.36
  12  0.111  0.556  0.955-   3 2.34   2 2.36   6 2.36
  13  0.222  0.444  0.045-   5 2.34   2 2.36   6 2.36
  14  0.111  0.889  0.955-   1 2.34   3 2.36   4 2.36
  15  0.222  0.777  0.045-   6 2.34   3 2.36   4 2.36
  16  0.444  0.222  0.955-   5 2.34   4 2.36   8 2.36
  17  0.556  0.111  0.045-   7 2.34   4 2.36   8 2.36
  18  0.444  0.556  0.955-   6 2.34   5 2.36   9 2.36
  19  0.556  0.444  0.045-   8 2.34   5 2.36   9 2.36
  20  0.444  0.889  0.955-   4 2.34   6 2.36   7 2.36
  21  0.556  0.777  0.045-   9 2.34   6 2.36   7 2.36
  22  0.777  0.222  0.955-   8 2.34   7 2.36   2 2.36
  23  0.889  0.111  0.045-   1 2.34   7 2.36   2 2.36
  24  0.777  0.556  0.955-   9 2.34   8 2.36   3 2.36
  25  0.889  0.444  0.045-   2 2.34   8 2.36   3 2.36
  26  0.777  0.889  0.955-   7 2.34   9 2.36   1 2.36
  27  0.889  0.777  0.045-   3 2.34   9 2.36   1 2.36

IMPORTANT INFORMATION: All symmetrisations will be switched off!
NOSYMM: (Re-)initialisation of all symmetry stuff for point group C_1.

 KPOINTS: K-POINTS 	#supercell of CrS2 in hexagona

Automatic generation of k-mesh.
Space group operators:
 irot       det(A)        alpha          n_x          n_y          n_z        tau_x        tau_y        tau_z
    1     1.000000     0.000000     1.000000     0.000000     0.000000     0.000000     0.000000     0.000000

 Subroutine IBZKPT returns following result:

 Found     34 irreducible k-points:

 Following reciprocal coordinates:
            Coordinates               Weight
  0.000000  0.000000  0.000000      1.000000
  0.125000  0.000000  0.000000      2.000000
  0.250000  0.000000  0.000000      2.000000
  0.375000  0.000000  0.000000      2.000000
  0.500000  0.000000  0.000000      1.000000
  0.000000  0.125000  0.000000      2.000000
  0.125000  0.125000  0.000000      2.000000
  0.250000  0.125000  0.000000      2.000000
  0.375000  0.125000  0.000000      2.000000
  0.500000  0.125000  0.000000      2.000000
 -0.375000  0.125000  0.000000      2.000000
 -0.250000  0.125000  0.000000      2.000000
 -0.125000  0.125000  0.000000      2.000000
  0.000000  0.250000  0.000000      2.000000
  0.125000  0.250000  0.000000      2.000000
  0.250000  0.250000  0.000000      2.000000
  0.375000  0.250000  0.000000      2.000000
  0.500000  0.250000  0.000000      2.000000
 -0.375000  0.250000  0.000000      2.000000
 -0.250000  0.250000  0.000000      2.000000
 -0.125000  0.250000  0.000000      2.000000
 -0.000000  0.375000  0.000000      2.000000
  0.125000  0.375000  0.000000      2.000000
  0.250000  0.375000  0.000000      2.000000
  0.375000  0.375000  0.000000      2.000000
  0.500000  0.375000  0.000000      2.000000
 -0.375000  0.375000  0.000000      2.000000
 -0.250000  0.375000  0.000000      2.000000
 -0.125000  0.375000  0.000000      2.000000
  0.000000  0.500000  0.000000      1.000000
  0.125000  0.500000  0.000000      2.000000
  0.250000  0.500000  0.000000      2.000000
  0.375000  0.500000  0.000000      2.000000
  0.500000  0.500000  0.000000      1.000000

 Following cartesian coordinates:
            Coordinates               Weight
  0.000000  0.000000  0.000000      1.000000
  0.007209  0.012401  0.000000      2.000000
  0.014418  0.024802  0.000000      2.000000
  0.021626  0.037202  0.000000      2.000000
  0.028835  0.049603  0.000000      1.000000
 -0.007209  0.012401  0.000000      2.000000
  0.000000  0.024802  0.000000      2.000000
  0.007209  0.037202  0.000000      2.000000
  0.014418  0.049603  0.000000      2.000000
  0.021626  0.062004  0.000000      2.000000
 -0.028835 -0.024802  0.000000      2.000000
 -0.021626 -0.012401  0.000000      2.000000
 -0.014418  0.000000  0.000000      2.000000
 -0.014418  0.024802  0.000000      2.000000
 -0.007209  0.037202  0.000000      2.000000
  0.000000  0.049603  0.000000      2.000000
  0.007209  0.062004  0.000000      2.000000
  0.014418  0.074405  0.000000      2.000000
 -0.036044 -0.012401  0.000000      2.000000
 -0.028835  0.000000  0.000000      2.000000
 -0.021626  0.012401  0.000000      2.000000
 -0.021626  0.037202  0.000000      2.000000
 -0.014418  0.049603  0.000000      2.000000
 -0.007209  0.062004  0.000000      2.000000
  0.000000  0.074405  0.000000      2.000000
  0.007209  0.086806  0.000000      2.000000
 -0.043253  0.000000  0.000000      2.000000
 -0.036044  0.012401  0.000000      2.000000
 -0.028835  0.024802  0.000000      2.000000
 -0.028835  0.049603  0.000000      1.000000
 -0.021626  0.062004  0.000000      2.000000
 -0.014418  0.074405  0.000000      2.000000
 -0.007209  0.086806  0.000000      2.000000
  0.000000  0.099206  0.000000      1.000000

 I would recommend the setting:
   dimension x,y,z NGX =    41 NGY =   41 NGZ =  123
 SYSTEM =  unknown system
 POSCAR =  crystal structure from CrS2 with Hexagin

 Startparameter for this run:
   NWRITE =      2    write-flag & timer
   PREC   = normal    normal or accurate (medium, high low for compatibility)
   ISTART =      0    job   : 0-new  1-cont  2-samecut
   ICHARG =      2    charge: 1-file 2-atom 10-const
   ISPIN  =      1    spin polarized calculation?
   LNONCOLLINEAR =      F non collinear calculations
   LSORBIT =      F    spin-orbit coupling
   INIWAV =      1    electr: 0-lowe 1-rand  2-diag
   LASPH  =      F    aspherical Exc in radial PAW
   METAGGA=      F    non-selfconsistent MetaGGA calc.

 Electronic Relaxation 1
   ENCUT  =  280.0 eV  20.58 Ry    4.54 a.u.  13.68 13.68 40.93*2*pi/ulx,y,z
   ENINI  =  280.0     initial cutoff
   ENAUG  =  402.1 eV  augmentation charge cutoff
   NELM   =     60;   NELMIN=  2; NELMDL= -5     # of ELM steps
   EDIFF  = 0.1E-03   stopping-criterion for ELM
   LREAL  =      F    real-space projection
   NLSPLINE    = F    spline interpolate recip. space projectors
   LCOMPAT=      F    compatible to vasp.4.4
   GGA_COMPAT  = T    GGA compatible to vasp.4.4-vasp.4.6
   LMAXPAW     = -100 max onsite density
   LMAXMIX     =    2 max onsite mixed and CHGCAR
   VOSKOWN=      0    Vosko Wilk Nusair interpolation
   ROPT   =    0.00000   0.00000
 Ionic relaxation
   EDIFFG = 0.1E-02   stopping-criterion for IOM
   NSW    =    100    number of steps for IOM
   NBLOCK =      1;   KBLOCK =    100    inner block; outer block
   IBRION =      1    ionic relax: 0-MD 1-quasi-New 2-CG
   NFREE  =      0    steps in history (QN), initial steepest desc. (CG)
   ISIF   =      3    stress and relaxation
   IWAVPR =     11    prediction:  0-non 1-charg 2-wave 3-comb
   ISYM   =      0    0-nonsym 1-usesym 2-fastsym
   LCORR  =      T    Harris-Foulkes like correction to forces

   POTIM  = 0.5000    time-step for ionic-motion
   TEIN   =    0.0    initial temperature
   TEBEG  =    0.0;   TEEND  =   0.0 temperature during run
   SMASS  =  -3.00    Nose mass-parameter (am)
   estimated Nose-frequenzy (Omega)   =  0.10E-29 period in steps =****** mass=  -0.230E-26a.u.
   SCALEE = 1.0000    scale energy and forces
   NPACO  =    256;   APACO  = 16.0  distance and # of slots for P.C.
   PSTRESS=    0.0 pullay stress

  Mass of Ions in am
   POMASS =  52.00 32.07
  Ionic Valenz
   ZVAL   =   6.00  6.00
  Atomic Wigner-Seitz radii
  virtual crystal weights
   VCA    =   1.00  1.00
   NELECT =     162.0000    total number of electrons
   NUPDOWN=      -1.0000    fix difference up-down

 DOS related values:
   EMIN   =  10.00;   EMAX   =-10.00  energy-range for DOS
   EFERMI =   0.00
   ISMEAR =     0;   SIGMA  =   0.20  broadening in eV -4-tet -1-fermi 0-gaus

 Electronic relaxation 2 (details)
   IALGO  =     38    algorithm
   LDIAG  =      T    sub-space diagonalisation (order eigenvalues)
   LSUBROT=      F    optimize rotation matrix (better conditioning)
   TURBO    =      0    0=normal 1=particle mesh
   IRESTART =      0    0=no restart 2=restart with 2 vectors
   NREBOOT  =      0    no. of reboots
   NMIN     =      0    reboot dimension
   EREF     =   0.00    reference energy to select bands
   IMIX   =      4    mixing-type and parameters
     AMIX     =   0.40;   BMIX     =  1.00
     AMIX_MAG =   1.60;   BMIX_MAG =  1.00
     AMIN     =   0.10
     WC   =   100.;   INIMIX=   1;  MIXPRE=   1;  MAXMIX= -45

 Intra band minimization:
   WEIMIN = 0.0010     energy-eigenvalue tresh-hold
   EBREAK =  0.20E-06  absolut break condition
   DEPER  =   0.30     relativ break condition

   TIME   =   0.40     timestep for ELM

  volume/ion in A,a.u.               =      97.10       655.29
  Fermi-wavevector in a.u.,A,eV,Ry     =   0.647211  1.223052  5.699245  0.418883
  Thomas-Fermi vector in A             =   1.715446

 Write flags
   LWAVE  =      F    write WAVECAR
   LCHARG =      F    write CHGCAR
   LVTOT  =      F    write LOCPOT, total local potential
   LVHAR  =      F    write LOCPOT, Hartree potential only
   LELF   =      F    write electronic localiz. function (ELF)
[...]
     -2.89000      5.04000      0.00000         0.000209      0.004415     -0.000173
      5.78000      3.36000      0.00000         0.000598      0.005196     -0.000009
      2.89000      5.04000      0.00000         0.000089      0.004350      0.000370
      0.00000      6.72000      0.00000         0.000331      0.005143      0.000033
     -0.96900      1.67900     28.66200         0.052361     -0.003127     -0.121136
      0.96900      1.67900      1.33800        -0.051729     -0.003232      0.120816
     -3.85900      3.35900     28.66200         0.051735     -0.002888     -0.122253
     -1.92100      3.35900      1.33800        -0.051989     -0.002831      0.122541
     -6.74900      5.03900     28.66200         0.051205     -0.001561     -0.120635
     -4.81100      5.03900      1.33800        -0.053076     -0.001815      0.122394
      1.92100      3.35900     28.66200         0.052620     -0.002434     -0.121822
      3.85900      3.35900      1.33800        -0.051934     -0.002387      0.120854
     -0.96900      5.03900     28.66200         0.053139     -0.001516     -0.122141
      0.96900      5.03900      1.33800        -0.051933     -0.001327      0.121054
     -3.85900      6.71900     28.66200         0.051222     -0.001018     -0.121840
     -1.92100      6.71900      1.33800        -0.051091     -0.001109      0.121819
      4.81100      5.03900     28.66200         0.051969     -0.002574     -0.121441
      6.74900      5.03900      1.33800        -0.051284     -0.002488      0.120778
      1.92100      6.71900     28.66200         0.051368     -0.002489     -0.121343
      3.85900      6.71900      1.33800        -0.052071     -0.002360      0.121685
     -0.96900      8.39900     28.66200         0.052342     -0.001867     -0.120244
      0.96900      8.39900      1.33800        -0.052788     -0.001944      0.120923
    total drift:                                0.000146      0.000030     -0.000067

  FREE ENERGIE OF THE ION-ELECTRON SYSTEM (eV)
  free  energy   TOTEN  =      -169.76291835 eV

  energy  without entropy=     -169.16152429  energy(sigma->0) =     -169.46222132

 Quasi-Newton relaxation of ions (Broydens 2nd method)
  g(Force)  = 0.152E-01   g(Stress)= 0.415E+01

 Reset! Starting new Quasi-Newton update for ions

[...]

 d Force = 0.8586253E-01[ 0.157E+00, 0.150E-01]  d Energy = 0.1860202E+01-0.177E+01
 d Force = 0.6039273E+02[ 0.646E+02, 0.562E+02]  d Ewald  =-0.6482545E+04 0.654E+04

[...]

 retain information from N=  1 steps
 eigenvalues of (default step * inverse Hessian matrix)
  average eigenvalue of G=   0.8218
 eigenvalue spectrum of G is  0.8218

[...]

 d Force = 0.8945212E+00[ 0.361E+00, 0.143E+01]  d Energy = 0.8349749E+00 0.595E-01
 d Force = 0.5890692E+03[ 0.583E+03, 0.595E+03]  d Ewald  = 0.1675078E+04-0.109E+04

[...]

 d Force = 0.1729648E+00[ 0.649E-01, 0.281E+00]  d Energy = 0.3715413E+00-0.199E+00
 d Force = 0.5244667E+03[ 0.536E+03, 0.513E+03]  d Ewald  =-0.1723374E+04 0.225E+04

[...]

 d Force = 0.9638560E-02[-0.461E-02, 0.239E-01]  d Energy = 0.2680877E-01-0.172E-01
 d Force = 0.1988649E+03[ 0.201E+03, 0.197E+03]  d Ewald  =-0.7180989E+03 0.917E+03

[...]

 FEWALD executed in parallel

[...]

 eigenvalue-minimisations  :  7296
 total energy-change (2. order) : 0.2691752E-03  (-0.1668462E-03)
 number of electron     162.0000386 magnetization
 augmentation part        7.7269373 magnetization

 Broyden mixing:
  rms(total) = 0.12357E-02    rms(broyden)= 0.11689E-02
  rms(prec ) = 0.12606E-02
  weight for this iteration     100.00

 eigenvalues of (default mixing * dielectric matrix)
  average eigenvalue GAMMA=   0.7089
  2.0058  1.0715  0.6974  0.2908  0.0964  0.0916

[...]

----------------------------------------- Iteration    7(   8)  ---------------------------------------

 eigenvalue-minimisations  :  5440
 total energy-change (2. order) :-0.5445458E-04  (-0.1269097E-04)
 number of electron     162.0000386 magnetization
 augmentation part        7.7269373 magnetization

 Free energy of the ion-electron system (eV)
  alpha Z        PSCENC =        79.50378808
  Ewald energy   TEWEN  =     51772.18945430
  -Hartree energ DENC   =    -58412.53922988
  -exchange      EXHF   =         0.00000000
  -V(xc)+E(xc)   XCENC  =        51.04487679
  PAW double counting   =      4449.24647267    -4214.26398380
  entropy T*S    EENTRO =        -0.31732911
  eigenvalues    EBANDS =     -1373.26044689
  atomic energy  EATOM  =      7475.22437441
  Solvation  Ediel_sol  =         0.00000000
  free energy    TOTEN  =      -173.17202344 eV

  energy without entropy =     -172.85469433  energy(sigma->0) =     -173.01335889

 average (electrostatic) potential at core
  the test charge radii are     1.1394  0.9698
  (the norm of the test charge is              1.0000)
       1 -52.4719       2 -52.4702       3 -52.4719       4 -52.4730       5 -52.4730
       6 -52.4718       7 -52.4734       8 -52.4734       9 -52.4733      10 -95.0353
      11 -95.0359      12 -95.0352      13 -95.0350      14 -95.0352      15 -95.0350
      16 -95.0363      17 -95.0359      18 -95.0354      19 -95.0357      20 -95.0354
      21 -95.0354      22 -95.0358      23 -95.0355      24 -95.0357      25 -95.0351
      26 -95.0351      27 -95.0356

 E-fermi :  -2.8735     XC(G=0):  -2.5936     alpha+bet : -2.4661

[...]

 k-point    34 :       0.5000    0.5000    0.0000
  band No.  band energies     occupation
      1     -17.6736      2.00000
      2     -17.6730      2.00000
      3     -16.8639      2.00000
      4     -16.8638      2.00000
      5     -16.6404      2.00000
      6     -16.6398      2.00000
      7     -16.1474      2.00000
      8     -16.1474      2.00000
      9     -15.7591      2.00000
     10     -15.7590      2.00000
     11     -15.7589      2.00000
     12     -15.7588      2.00000
     13     -15.7273      2.00000
     14     -15.5370      2.00000
     15     -15.5368      2.00000
     16     -15.5366      2.00000
     17     -15.5365      2.00000
     18     -15.4972      2.00000
     19      -9.7828      2.00000
     20      -9.0622      2.00000
     21      -9.0620      2.00000
     22      -9.0615      2.00000
     23      -9.0613      2.00000
     24      -8.6227      2.00000
     25      -8.5584      2.00000
     26      -8.5577      2.00000
     27      -8.4025      2.00000
     28      -8.4025      2.00000
     29      -8.4022      2.00000
     30      -8.4021      2.00000
     31      -7.8942      2.00000
     32      -7.8942      2.00000
     33      -7.7160      2.00000
     34      -7.7159      2.00000
     35      -7.1090      2.00000
     36      -7.1086      2.00000
     37      -7.0954      2.00000
     38      -7.0953      2.00000
     39      -6.9576      2.00000
     40      -6.8960      2.00000
     41      -6.8958      2.00000
     42      -6.8957      2.00000
     43      -6.8955      2.00000
     44      -6.6432      2.00000
     45      -6.6429      2.00000
     46      -6.6427      2.00000
     47      -6.6424      2.00000
     48      -6.2386      2.00000
     49      -6.1654      2.00000
     50      -6.1653      2.00000
     51      -6.1652      2.00000
     52      -6.1650      2.00000
     53      -5.8829      2.00000
     54      -5.8822      2.00000
     55      -5.8592      2.00000
     56      -5.8591      2.00000
     57      -5.8301      2.00000
     58      -5.8300      2.00000
     59      -5.7254      2.00000
     60      -5.7252      2.00000
[...]
    114      -0.0801      0.00000
    115      -0.0798      0.00000
    116      -0.0797      0.00000
    117       0.0368      0.00000
    118       2.2769      0.00000
    119       2.2769      0.00000
    120       2.4388      0.00000
    121       2.4389      0.00000
    122       2.8158      0.00000
    123       2.8159      0.00000
    124       2.9610      0.00000
    125       3.0804      0.00000
    126       3.1629      0.00000
    127       3.1630      0.00000
    128       3.3517      0.00000

 soft charge-density along one line, spin component           1
         0         1         2         3         4         5         6         7         8         9
 total charge-density along one line

------------------------ aborting loop because EDIFF is reached ----------------------------------------

  FORCE on cell =-STRESS in cart. coord.  units (eV):
  Direction    XX          YY          ZZ          XY          YZ          ZX
  Alpha Z    79.50379    79.50379    79.50379
  Ewald   57163.69961 57163.70778-62555.23229    -0.00235    -0.00240    -0.04244
  Hartree 58016.69839 58016.69412-57620.58027    -0.00076    -0.00055    -0.01196
  E(xc)    -614.65452  -614.65421  -622.57197     0.00001     0.00003    -0.00002
  Local  ************************117569.66922     0.00288     0.00302     0.05247
  n-local  1212.90987  1212.89802  1272.22586    -0.00025    -0.00047    -0.00071
  augment   -63.69881   -63.69720   -67.40168     0.00002     0.00007     0.00065
  Kinetic  1898.63171  1898.63118  1943.20271     0.00020    -0.00014     0.00944
  Fock        0.00000     0.00000     0.00000     0.00000     0.00000     0.00000
  Total       0.04024     0.04752    -1.18463    -0.00027    -0.00043     0.00743
  in kB       0.02950     0.03484    -0.86851    -0.00019    -0.00031     0.00544

 VOLUME and BASIS-vectors are now :
  energy-cutoff  :      280.00
  volume of cell :     2185.34
      direct lattice vectors                 reciprocal lattice vectors
     7.942416244  4.585805759  0.000000000     0.062953122  0.109032116  0.000000000
    -7.942414222  4.585802690  0.000000000    -0.062953164  0.109032143  0.000000000
     0.000000000  0.000000000 30.000000000     0.000000000  0.000000000  0.033333333

  length of vectors
     9.171237117  9.171233831 30.000000000     0.125901143  0.125901188  0.033333333

 FORCES acting on ions
    electron-ion (+dipol)            ewald-force                    non-local-force                 convergence-correction
   0.304E-01 0.116E-01 0.259E-01   -.139E-01 -.310E-01 -.266E-01   0.473E-03 0.121E-03 0.418E-03   -.163E-01 0.185E-01 0.137E-03
   -.323E-04 -.728E-01 -.871E-02   -.350E-02 0.468E-01 0.896E-02   -.731E-04 -.177E-02 -.355E-03   0.339E-02 0.262E-01 0.572E-04
   -.947E-01 -.374E-01 -.110E-01   0.542E-01 0.345E-01 0.111E-01   -.150E-02 -.937E-03 -.306E-03   0.407E-01 0.351E-02 0.316E-04
   -.510E-01 0.141E+00 0.595E-02   0.536E-01 -.103E+00 -.586E-02   -.122E-02 0.216E-02 0.717E-03   -.161E-02 -.396E-01 -.188E-03
   0.152E+00 0.455E-01 -.677E-02   -.978E-01 -.133E-01 0.699E-02   0.256E-02 -.318E-03 0.308E-04   -.543E-01 -.320E-01 -.154E-03
   0.511E-01 0.884E-01 -.189E-01   -.347E-01 -.331E-01 0.192E-01   0.664E-03 0.556E-03 -.274E-03   -.170E-01 -.547E-01 -.845E-04
   -.592E-01 -.133E-02 0.155E-01   0.460E-01 -.279E-01 -.159E-01   -.113E-02 0.190E-03 0.189E-03   0.136E-01 0.285E-01 0.149E-03
   -.750E-01 -.907E-01 -.111E-01   0.419E-01 0.548E-01 0.115E-01   -.704E-03 -.208E-02 -.262E-03   0.334E-01 0.361E-01 0.970E-05
   0.441E-01 -.461E-01 0.741E-02   -.429E-01 0.334E-01 -.790E-02   0.111E-02 -.682E-03 -.354E-03   -.186E-02 0.135E-01 0.173E-03
   0.969E-01 0.839E-02 0.649E+03   -.423E-01 0.235E-02 -.653E+03   0.240E-03 0.371E-03 0.431E+01   -.544E-01 -.116E-01 0.348E-01
   0.443E-01 0.803E-01 -.649E+03   -.183E-01 -.532E-01 0.653E+03   0.149E-02 -.241E-03 -.431E+01   -.270E-01 -.277E-01 0.696E-02
   -.282E-01 0.114E-01 0.649E+03   0.632E-02 0.175E-01 -.653E+03   -.139E-02 0.422E-03 0.431E+01   0.217E-01 -.282E-01 0.550E-01
   0.103E+00 0.370E-01 -.649E+03   -.540E-01 0.586E-03 0.653E+03   0.135E-02 -.147E-03 -.431E+01   -.503E-01 -.369E-01 -.398E-01
   -.328E-01 0.428E-01 0.649E+03   0.351E-01 -.237E-01 -.653E+03   0.396E-03 0.183E-02 0.431E+01   -.263E-02 -.210E-01 0.771E-02
   -.350E-01 0.629E-01 -.649E+03   0.187E-01 -.265E-01 0.653E+03   -.131E-02 0.217E-02 -.431E+01   0.176E-01 -.390E-01 -.148E-01
   0.296E-02 0.244E-01 0.649E+03   0.555E-02 -.120E-01 -.653E+03   0.672E-03 0.730E-03 0.431E+01   -.913E-02 -.135E-01 -.341E-01
   -.550E-01 0.224E-01 -.649E+03   0.474E-01 -.240E-01 0.653E+03   0.188E-03 0.776E-04 -.431E+01   0.865E-02 0.137E-02 0.350E-01
   0.954E-01 0.206E-01 0.649E+03   -.554E-01 0.183E-02 -.653E+03   0.795E-03 0.453E-03 0.431E+01   -.414E-01 -.224E-01 -.938E-02
   0.432E-01 -.339E-01 -.649E+03   -.348E-01 0.342E-01 0.653E+03   0.125E-02 0.600E-03 -.431E+01   -.931E-02 -.160E-03 0.354E-01
   -.235E-01 0.840E-01 0.649E+03   0.183E-01 -.457E-01 -.653E+03   -.218E-02 0.167E-02 0.431E+01   0.687E-02 -.395E-01 -.133E-01
   0.305E-01 0.269E-01 -.649E+03   -.173E-01 -.181E-02 0.653E+03   0.469E-03 0.226E-02 -.431E+01   -.138E-01 -.265E-01 0.167E-01
   -.679E-01 -.105E+00 0.649E+03   0.308E-01 0.364E-01 -.653E+03   -.181E-02 -.278E-03 0.431E+01   0.387E-01 0.677E-01 0.785E-02
   -.702E-02 -.708E-01 -.649E+03   0.960E-02 0.733E-02 0.653E+03   0.981E-03 -.731E-03 -.431E+01   -.291E-02 0.634E-01 -.268E-01
   -.480E-01 -.751E-01 0.649E+03   0.190E-01 0.428E-01 -.653E+03   -.861E-04 -.990E-03 0.431E+01   0.288E-01 0.345E-01 -.154E-01
   -.944E-01 -.927E-01 -.649E+03   0.354E-01 0.569E-01 0.653E+03   -.688E-03 -.698E-03 -.431E+01   0.594E-01 0.376E-01 -.298E-01
   -.611E-02 -.345E-01 0.649E+03   -.435E-02 0.534E-03 -.653E+03   -.959E-03 0.398E-03 0.431E+01   0.109E-01 0.339E-01 -.148E-01
   -.147E-01 -.531E-01 -.649E+03   -.232E-02 0.249E-01 0.653E+03   -.245E-03 0.930E-03 -.431E+01   0.181E-01 0.278E-01 -.129E-02
   0.840E-03 -.552E-02 -.170E-03   -.444E-13 0.118E-13 -.682E-12   -.648E-03 0.607E-02 -.689E-05   -.108E-03 -.174E-04 0.163E-03

 POSITION                                       TOTAL-FORCE (eV/Angst)
      0.00005     -0.00043     -0.00008         0.000613     -0.000800     -0.000166
      5.29495      6.11359      0.00001        -0.000213     -0.001620     -0.000046
     -5.29514      3.05653      0.00003        -0.001327     -0.000277     -0.000195
      2.64723      1.52838      0.00000        -0.000300      0.001072      0.000622
      0.00039      3.05654      0.00003         0.002071     -0.000194      0.000102
     -2.64746      4.58531      0.00005         0.000042      0.001112     -0.000069
      5.29474      3.05682     -0.00005        -0.000755     -0.000613     -0.000020
      2.64743      4.58500      0.00004        -0.000425     -0.001873      0.000114
      0.00020      6.11380     -0.00002         0.000479      0.000067     -0.000667
     -0.88237      1.52808     28.52325         0.000515     -0.000514     -0.000384
      0.88244      1.52806      1.47680         0.000519     -0.000787      0.000562
     -3.52991      3.05655     28.52325        -0.001640      0.001154      0.001271
     -1.76485      3.05659      1.47657        -0.000025      0.000480      0.000922
     -6.17738      4.58522     28.52324         0.000029     -0.000093      0.001064
     -4.41259      4.58528      1.47668         0.000012     -0.000436     -0.001646
      1.76500      3.05667     28.52329         0.000050     -0.000348     -0.003017
      3.52985      3.05661      1.47674         0.001225     -0.000137      0.000614
     -0.88232      4.58514     28.52349        -0.000597      0.000455     -0.000805
      0.88248      4.58513      1.47656         0.000340      0.000676      0.002017
     -3.52995      6.11383     28.52333        -0.000525      0.000484      0.000508
     -1.76495      6.11385      1.47658        -0.000106      0.000804     -0.000474
      4.41238      4.58512     28.52319        -0.000277     -0.000792     -0.000570
      6.17743      4.58510      1.47685         0.000641     -0.000829     -0.000616
      1.76505      6.11363     28.52334        -0.000306      0.001095     -0.000253
      3.52980      6.11364      1.47668        -0.000287      0.001049      0.000565
     -0.88244      7.64233     28.52337        -0.000564      0.000315      0.001491
      0.88237      7.64235      1.47678         0.000812      0.000550     -0.000924
    total drift:                                0.000084      0.000529     -0.000015

  FREE ENERGIE OF THE ION-ELECTRON SYSTEM (eV)
  free  energy   TOTEN  =      -173.17202344 eV

  energy  without entropy=     -172.85469433  energy(sigma->0) =     -173.01335889

 d Force = 0.2719027E-03[-0.129E-05, 0.545E-03]  d Energy = 0.4392694E-03-0.167E-03
 d Force =-0.2344561E+02[-0.234E+02,-0.235E+02]  d Ewald  = 0.6967480E+02-0.931E+02

 Quasi-Newton relaxation of ions (Broydens 2nd method)
  g(Force)  = 0.286E-05   g(Stress)= 0.693E-05

 retain information from N=  1 steps
 eigenvalues of (default step * inverse Hessian matrix)
  average eigenvalue of G=   2.3523
 eigenvalue spectrum of G is  2.3523

 reached required accuracy - stopping structural energy minimisation